sets/C/cp-n9-k3.opt
Route #1: 8 5 3 4
Route #2: 2 6 1
Route #3: 7
cost 164
